(set-logic HORN)
(set-info :source |
  Benchmark: test_safe_2019/mochi/a-max.ml
  Generated by MoCHi
|)
(set-info :status unknown)
(declare-fun |fail_20[242:0]| ( Int) Bool)
(declare-fun |array_max[170:4][237:0]| ( Int  Int  Int  Int) Bool)
(declare-fun |array_max[190:4][231:0]| ( Int  Int  Int  Int) Bool)
(declare-fun |array_max[222:4][225:0]| ( Int  Int  Int  Int) Bool)
(declare-fun |array_max[222:3]| ( Int  Int  Int) Bool)
(declare-fun |array_max[190:2][193:1][211:0]| ( Int  Int  Int  Int) Bool)
(declare-fun |array_max[170:2][199:1][205:0]| ( Int  Int  Int  Int) Bool)
(declare-fun |array_max[170:2][199:0]| ( Int  Int  Int) Bool)
(declare-fun |array_max[190:2][193:0]| ( Int  Int  Int) Bool)
(declare-fun |array_max[190:3]| ( Int  Int  Int) Bool)
(declare-fun |array_max[170:2][173:1][179:0]| ( Int  Int  Int  Int) Bool)
(declare-fun |array_max[170:2][173:0]| ( Int  Int  Int) Bool)
(declare-fun |array_max[170:3]| ( Int  Int  Int) Bool)
(assert (not (exists ((x0 Int)) (|fail_20[242:0]| x0))))
(assert (forall ((x0 Int)(x2 Int)(x3 Int)) (=> (and (|array_max[170:4][237:0]| x2 0 (- 1) x3) (and (>= x2 1) (<= (+ 1 x3) x2))) (|fail_20[242:0]| x0))))
(assert (forall ((x2 Int)(x0 Int)(x1 Int)(x3 Int)(var148 Int)(var149 Int)) (=> (and (|array_max[190:4][231:0]| x2 var148 var149 x3) (and (|array_max[170:3]| x2 x0 x1) (and (|array_max[170:2][173:1][179:0]| x2 x0 x0 var149) (and (= var148 (+ 1 x0)) (and (>= var149 (+ 1 x1)) (<= (+ 1 x0) x2)))))) (|array_max[170:4][237:0]| x2 x0 x1 x3))))
(assert (forall ((x2 Int)(x0 Int)(x1 Int)(x3 Int)(var150 Int)(var151 Int)) (=> (and (|array_max[222:4][225:0]| x2 var150 x1 x3) (and (|array_max[190:3]| x2 x0 x1) (and (|array_max[190:2][193:1][211:0]| x2 x0 x0 var151) (and (= var150 (+ 1 x0)) (and (<= var151 x1) (<= (+ 1 x0) x2)))))) (|array_max[190:4][231:0]| x2 x0 x1 x3))))
(assert (forall ((x1 Int)(x2 Int)(x3 Int)(x0 Int)) (=> (and (|array_max[222:3]| x1 x2 x3) (and (>= x2 x1) (= x0 x3))) (|array_max[222:4][225:0]| x1 x2 x3 x0))))
(assert (forall ((x3 Int)(x0 Int)(x5 Int)(x1 Int)(x4 Int)) (=> (and (|array_max[190:3]| x3 x1 x5) (and (|array_max[190:2][193:1][211:0]| x3 x1 x1 x4) (and (= x0 (+ 1 x1)) (and (<= x4 x5) (<= (+ 1 x1) x3))))) (|array_max[222:3]| x3 x0 x5))))
(assert (forall ((x4 Int)(x0 Int)(x6 Int)(x7 Int)(x2 Int)(x1 Int)(x3 Int)) (=> (and (|array_max[170:2][173:1][179:0]| x4 x2 x2 x1) (and (|array_max[170:3]| x4 x2 x3) (and (|array_max[170:2][199:1][205:0]| x4 x2 x6 x7) (and (= x0 (+ 1 x2)) (and (>= x1 (+ 1 x3)) (<= (+ 1 x2) x4)))))) (|array_max[190:2][193:1][211:0]| x4 x0 x6 x7))))
(assert (forall ((x1 Int)(x0 Int)(x2 Int)(x3 Int)) (=> (and (|array_max[170:2][199:0]| x1 0 x2) (and (= x0 0) (and (= (+ x3 x2) x1) (>= x1 1)))) (|array_max[170:2][199:1][205:0]| x1 x0 x2 x3))))
(assert (forall ((x2 Int)(x0 Int)(x3 Int)(var152 Int)(var153 Int)(x1 Int)) (=> (and (|array_max[190:2][193:0]| x2 var152 x3) (and (|array_max[170:3]| x2 x0 x1) (and (|array_max[170:2][173:1][179:0]| x2 x0 x0 var153) (and (= var152 (+ 1 x0)) (and (>= var153 (+ 1 x1)) (<= (+ 1 x0) x2)))))) (|array_max[170:2][199:0]| x2 x0 x3))))
(assert (forall ((x1 Int)(x2 Int)(x0 Int)(x3 Int)) (=> (and (|array_max[190:3]| x1 x2 x3) (and (<= (+ 1 x2) x1) (= x0 x2))) (|array_max[190:2][193:0]| x1 x2 x0))))
(assert (forall ((x3 Int)(x0 Int)(x5 Int)(x1 Int)(x2 Int)) (=> (and (|array_max[170:3]| x3 x1 x2) (and (|array_max[170:2][173:1][179:0]| x3 x1 x1 x5) (and (= x0 (+ 1 x1)) (and (>= x5 (+ 1 x2)) (<= (+ 1 x1) x3))))) (|array_max[190:3]| x3 x0 x5))))
(assert (forall ((x1 Int)(x0 Int)(x2 Int)(x3 Int)) (=> (and (|array_max[170:2][173:0]| x1 0 x2) (and (= x0 0) (and (= (+ x3 x2) x1) (>= x1 1)))) (|array_max[170:2][173:1][179:0]| x1 x0 x2 x3))))
(assert (forall ((x1 Int)(x2 Int)(x0 Int)(x3 Int)) (=> (and (|array_max[170:3]| x1 x2 x3) (and (<= (+ 1 x2) x1) (= x0 x2))) (|array_max[170:2][173:0]| x1 x2 x0))))
(assert (forall ((x1 Int)(x2 Int)(x0 Int)) (=> (and (= x0 (- 1)) (and (= x2 0) (>= x1 1))) (|array_max[170:3]| x1 x2 x0))))
(check-sat)
(get-model)
(exit)
